21
3
69
48
44
22
42
45
80
24
56
4
8
68
17
82
94
25
83
88
12
6
101
52
15
18
75
58
5
86
63
67
96
74
36
60
84
98
103
14
33
81
2
23
64
106
73
43
89
10
40
65
38
27
59
78
11
97
99
90
105
102
7
13
34
16
31
87
54
1
55
62
37
30
47
93
50
107
104
53
70
51
26
57
19
41
39
91
108
20
29
35
76
71
66
92
77
109
28
49
